s td 40 5 44
b 1 1 2 12
b 2 10 11 22
b 3 23 34 35
b 4 33 43 44
b 5 2 3 12 13
b 6 9 10 21 22
b 7 3 4 15 27 39
b 8 4 5 15 27 39
b 9 5 15 17 27 39
b 10 5 17 27 29 39
b 11 5 17 29 39 41
b 12 5 7 17 29 41
b 13 5 6 7 17
b 14 7 17 19 29 41
b 15 7 9 19 29 41
b 16 7 8 9 19
b 17 9 19 29 31 41
b 18 9 19 21 31 41
b 19 9 19 20 21 31
b 20 9 21 31 33 41
b 21 9 21 22 33
b 22 21 31 33 41 42
b 23 21 31 32 33 42
b 24 19 29 30 31 41
b 25 7 17 18 19 29
b 26 29 39 40 41
b 27 17 27 28 29 39
b 28 5 15 16 17 27
b 29 3 15 27 37 39
b 30 3 15 25 27 37
b 31 3 13 15 25 37
b 32 3 13 23 25 37
b 33 3 12 13 23
b 34 13 23 25 36 37
b 35 13 23 24 25 36
b 36 3 13 14 15 25
b 37 15 25 26 27 37
b 38 27 37 38 39
b 39 23 24 35 36
b 40 32 33 42 43
1 5
2 6
3 39
4 40
5 33
6 21
7 8
7 29
8 9
9 10
9 28
10 11
10 27
11 12
11 26
12 13
12 14
14 15
14 25
15 16
15 17
17 18
17 24
18 19
18 20
20 21
20 22
22 23
23 40
29 30
29 38
30 31
30 37
31 32
31 36
32 33
32 34
34 35
35 39
